p cnf 1125 2883
-1 2 0
1 3 0
-4 5 0
-4 6 0
-7 8 0
-7 9 0
-8 10 0
-8 11 0
-10 12 0
-10 13 0
-12 14 0
-12 15 0
-14 16 0
-14 17 0
-16 18 0
-16 19 0
-18 20 0
-18 21 0
-20 22 0
-20 23 0
-22 24 0
-22 25 0
-24 26 0
-5 27 0
-5 28 0
-29 -30 31 0
-29 30 32 0
-30 33 0
-30 34 0
-33 35 0
-33 6 0
-35 36 0
-35 28 0
-36 37 0
-36 38 0
-37 39 0
-37 40 0
-39 41 0
-39 42 0
-41 43 0
-41 44 0
-43 45 0
-43 46 0
-45 47 0
-45 48 0
-27 49 0
-27 38 0
-47 50 0
-47 51 0
-50 52 0
-50 53 0
-52 54 0
-52 9 0
-54 55 0
-54 11 0
-55 56 0
-55 13 0
-56 57 0
-56 15 0
-57 58 0
-57 17 0
-58 59 0
-58 19 0
-59 60 0
-59 21 0
-60 61 0
-60 23 0
-49 62 0
-49 40 0
-61 24 0
-61 63 0
-31 -64 65 0
-31 64 66 0
-64 67 0
-64 68 0
-67 69 0
-67 70 0
-69 71 0
-69 72 0
-71 73 0
-71 74 0
-73 75 0
-73 76 0
-75 77 0
-75 78 0
-77 79 0
-77 80 0
-79 81 0
-79 82 0
-62 83 0
-62 42 0
-81 84 0
-81 85 0
-84 86 0
-84 87 0
-86 88 0
-86 89 0
-88 90 0
-88 91 0
-90 92 0
-90 93 0
-92 94 0
-92 95 0
-94 96 0
-94 97 0
-96 98 0
-96 99 0
-98 100 0
-98 101 0
-100 102 0
-100 103 0
-83 104 0
-83 44 0
-102 105 0
-102 106 0
-105 107 0
-105 108 0
-107 109 0
-107 110 0
-109 111 0
-109 112 0
-111 113 0
-111 114 0
-113 -115 0
-112 -116 117 0
-112 -117 116 0
-116 118 0
-104 119 0
-104 46 0
-118 120 0
-120 121 0
-121 122 0
-110 -123 124 0
-110 -124 123 0
-123 125 0
-125 126 0
-126 127 0
-127 128 0
-119 129 0
-119 48 0
-108 -130 131 0
-108 -131 130 0
-130 132 0
-132 -133 0
-133 134 0
-134 135 0
-129 136 0
-129 51 0
-106 -137 138 0
-106 -138 137 0
-137 -139 -140 0
-137 139 140 0
-139 141 0
-141 142 0
-142 143 0
-140 133 0
-103 -144 145 0
-103 -145 144 0
-136 146 0
-136 53 0
-144 -147 -148 0
-144 147 148 0
-147 149 0
-149 150 0
-150 151 0
-148 141 0
-148 140 0
-101 -152 153 0
-101 -153 152 0
-152 -154 -155 0
-152 154 155 0
-154 156 0
-2 -157 66 0
-2 157 158 0
-146 159 0
-146 9 0
-156 160 0
-160 161 0
-155 149 0
-155 148 0
-99 -162 163 0
-99 -163 162 0
-162 -164 -165 0
-162 164 165 0
-164 166 0
-166 167 0
-167 168 0
-159 169 0
-159 11 0
-165 156 0
-165 155 0
-97 -170 171 0
-97 -171 170 0
-170 -172 -173 0
-170 172 173 0
-172 174 0
-174 175 0
-175 176 0
-169 177 0
-169 13 0
-173 166 0
-173 165 0
-95 -178 179 0
-95 -179 178 0
-178 -180 -181 0
-178 180 181 0
-180 182 0
-182 183 0
-183 184 0
-181 174 0
-181 173 0
-93 -185 186 0
-93 -186 185 0
-177 187 0
-177 15 0
-185 -188 -189 0
-185 188 189 0
-188 190 0
-190 191 0
-191 192 0
-189 182 0
-189 181 0
-91 -193 194 0
-91 -194 193 0
-193 -195 -196 0
-193 195 196 0
-195 197 0
-187 198 0
-187 17 0
-197 199 0
-199 200 0
-196 190 0
-196 189 0
-89 -201 202 0
-89 -202 201 0
-201 -203 -204 0
-201 203 204 0
-203 205 0
-205 206 0
-206 207 0
-198 208 0
-198 19 0
-204 197 0
-204 196 0
-87 -209 210 0
-87 -210 209 0
-209 -211 -212 0
-209 211 212 0
-211 213 0
-213 214 0
-214 215 0
-208 216 0
-208 21 0
-212 205 0
-212 204 0
-85 -217 218 0
-85 -218 217 0
-217 -219 -220 0
-217 219 220 0
-219 221 0
-221 222 0
-222 223 0
-220 213 0
-220 212 0
-82 -224 225 0
-82 -225 224 0
-216 226 0
-216 23 0
-224 -227 -228 0
-224 227 228 0
-227 229 0
-229 230 0
-230 231 0
-228 221 0
-228 220 0
-80 -232 233 0
-80 -233 232 0
-232 -234 -235 0
-232 234 235 0
-234 236 0
-226 63 0
-226 237 0
-236 238 0
-238 239 0
-235 229 0
-235 228 0
-78 -240 241 0
-78 -241 240 0
-240 -242 -243 0
-240 242 243 0
-242 244 0
-244 245 0
-245 246 0
-63 247 0
-63 248 0
-243 236 0
-243 235 0
-76 -249 250 0
-76 -250 249 0
-249 -251 -252 0
-249 251 252 0
-251 253 0
-253 254 0
-254 255 0
-157 256 0
-247 257 0
-247 258 0
-252 244 0
-252 243 0
-74 -259 260 0
-74 -260 259 0
-259 -261 -262 0
-259 261 262 0
-261 263 0
-263 264 0
-264 265 0
-262 253 0
-262 252 0
-72 -266 267 0
-72 -267 266 0
-257 268 0
-257 269 0
-266 -270 -271 0
-266 270 271 0
-270 272 0
-272 273 0
-273 274 0
-271 263 0
-271 262 0
-70 -275 276 0
-70 -276 275 0
-275 -277 -278 0
-275 277 278 0
-277 279 0
-268 280 0
-279 281 0
-281 282 0
-278 272 0
-278 271 0
-68 -283 284 0
-68 -284 283 0
-283 -285 -286 0
-283 285 286 0
-285 287 0
-287 288 0
-288 289 0
-290 -291 65 0
-290 291 66 0
-286 279 0
-286 278 0
-32 -292 66 0
-32 292 293 0
-292 294 0
-292 34 0
-294 295 0
-294 6 0
-295 296 0
-295 28 0
-296 297 0
-296 38 0
-297 298 0
-297 40 0
-298 299 0
-298 42 0
-291 300 0
-291 301 0
-299 302 0
-299 44 0
-302 303 0
-302 46 0
-303 304 0
-303 48 0
-304 305 0
-304 51 0
-305 306 0
-305 53 0
-306 307 0
-306 9 0
-307 308 0
-307 11 0
-308 309 0
-308 13 0
-309 310 0
-309 15 0
-310 311 0
-310 17 0
-300 312 0
-300 313 0
-311 314 0
-311 19 0
-314 315 0
-314 21 0
-315 316 0
-315 23 0
-316 24 0
-316 317 0
-293 -318 66 0
-293 318 319 0
-318 320 0
-318 34 0
-320 321 0
-320 6 0
-321 322 0
-321 28 0
-322 323 0
-322 38 0
-323 324 0
-323 40 0
-312 325 0
-312 326 0
-324 327 0
-324 42 0
-327 328 0
-327 44 0
-328 329 0
-328 46 0
-329 330 0
-329 48 0
-330 331 0
-330 51 0
-331 332 0
-331 53 0
-332 333 0
-332 9 0
-333 334 0
-333 11 0
-334 335 0
-334 13 0
-335 336 0
-335 15 0
-325 337 0
-325 338 0
-336 339 0
-336 17 0
-339 340 0
-339 19 0
-340 341 0
-340 21 0
-341 342 0
-341 23 0
-342 24 0
-342 343 0
-319 -344 65 0
-319 344 345 0
-344 346 0
-344 34 0
-346 347 0
-346 6 0
-347 348 0
-347 28 0
-348 349 0
-348 38 0
-337 350 0
-337 351 0
-349 352 0
-349 40 0
-352 353 0
-352 42 0
-353 354 0
-353 44 0
-354 355 0
-354 46 0
-355 356 0
-355 48 0
-356 357 0
-356 51 0
-357 358 0
-357 53 0
-358 359 0
-358 9 0
-359 360 0
-359 11 0
-360 361 0
-360 13 0
-350 362 0
-350 363 0
-361 364 0
-361 15 0
-364 365 0
-364 17 0
-365 366 0
-365 19 0
-366 367 0
-366 21 0
-367 368 0
-367 23 0
-368 24 0
-368 369 0
-345 -370 65 0
-345 370 66 0
-370 371 0
-370 34 0
-371 372 0
-371 6 0
-372 373 0
-372 28 0
-362 374 0
-362 375 0
-373 376 0
-373 38 0
-376 377 0
-376 40 0
-377 378 0
-377 42 0
-378 379 0
-378 44 0
-379 380 0
-379 46 0
-380 381 0
-380 48 0
-381 382 0
-381 51 0
-382 383 0
-382 53 0
-383 384 0
-383 9 0
-384 385 0
-384 11 0
-374 386 0
-374 387 0
-385 388 0
-385 13 0
-388 389 0
-388 15 0
-389 390 0
-389 17 0
-390 391 0
-390 19 0
-391 392 0
-391 21 0
-392 393 0
-392 23 0
-393 24 0
-393 394 0
-3 -395 396 0
-3 -396 395 0
-386 397 0
-386 398 0
-397 399 0
-397 400 0
-399 401 0
-399 402 0
-401 403 0
-401 404 0
-403 405 0
-403 406 0
-405 407 0
-405 408 0
-407 409 0
-407 410 0
-409 411 0
-409 412 0
-66 -396 0
-411 413 0
-411 414 0
-413 415 0
-413 416 0
-415 417 0
-415 418 0
-417 419 0
-417 420 0
-419 421 0
-419 422 0
-421 423 0
-421 424 0
-423 425 0
-423 426 0
-425 -427 0
-426 -428 0
-424 -429 430 0
-424 -430 429 0
-430 431 0
-431 432 0
-432 433 0
-433 434 0
-158 -435 436 0
-158 435 3 0
-422 -437 438 0
-422 -438 437 0
-438 439 0
-439 440 0
-440 441 0
-441 442 0
-435 443 0
-435 444 0
-420 -445 446 0
-420 -446 445 0
-443 447 0
-446 448 0
-448 449 0
-449 450 0
-450 451 0
-1 444 452 0
-436 -453 65 0
-436 453 454 0
-418 -455 456 0
-418 -456 455 0
-456 457 0
-457 458 0
-458 459 0
-459 460 0
-453 -461 0
-416 -462 463 0
-416 -463 462 0
-463 464 0
-464 465 0
-465 466 0
-466 467 0
-65 396 0
-414 -468 469 0
-414 -469 468 0
-469 470 0
-470 471 0
-471 472 0
-472 473 0
-454 -474 475 0
-454 474 66 0
-412 -476 477 0
-412 -477 476 0
-474 461 0
-477 478 0
-478 -479 -480 0
-478 479 480 0
-479 481 0
-481 482 0
-480 483 0
-483 484 0
-475 -485 65 0
-475 485 486 0
-410 -487 488 0
-410 -488 487 0
-488 -489 -490 0
-488 489 490 0
-489 -491 -492 0
-489 491 492 0
-491 493 0
-485 494 0
-485 34 0
-493 495 0
-492 496 0
-496 115 0
-490 497 0
-497 498 0
-498 479 0
-498 480 0
-494 499 0
-494 6 0
-408 -500 501 0
-408 -501 500 0
-501 -502 -503 0
-501 502 503 0
-502 -504 -505 0
-502 504 505 0
-504 506 0
-506 507 0
-499 508 0
-499 28 0
-505 509 0
-509 117 0
-503 510 511 0
-510 512 513 0
-512 491 0
-512 492 0
-513 492 0
-513 490 0
-511 491 0
-511 490 0
-406 -514 515 0
-406 -515 514 0
-444 -516 0
-508 517 0
-508 38 0
-515 -518 -519 0
-515 518 519 0
-518 -520 -521 0
-518 520 521 0
-520 522 0
-522 523 0
-521 524 0
-524 124 0
-517 525 0
-517 40 0
-519 526 527 0
-526 528 529 0
-528 504 0
-528 505 0
-529 505 0
-529 503 0
-527 504 0
-527 503 0
-404 -530 531 0
-404 -531 530 0
-531 -532 -533 0
-531 532 533 0
-532 -534 -535 0
-532 534 535 0
-525 536 0
-525 42 0
-534 537 0
-537 538 0
-535 539 0
-539 131 0
-533 540 541 0
-540 542 543 0
-536 544 0
-536 44 0
-542 520 0
-542 521 0
-543 521 0
-543 519 0
-541 520 0
-541 519 0
-402 -545 546 0
-402 -546 545 0
-546 -547 -548 0
-546 547 548 0
-547 -549 -550 0
-547 549 550 0
-549 551 0
-551 552 0
-544 553 0
-544 46 0
-550 554 0
-554 138 0
-548 555 556 0
-555 557 558 0
-557 534 0
-557 535 0
-558 535 0
-558 533 0
-556 534 0
-556 533 0
-553 559 0
-553 48 0
-400 -560 561 0
-400 -561 560 0
-561 -562 -563 0
-561 562 563 0
-562 -564 -565 0
-562 564 565 0
-564 566 0
-566 567 0
-565 568 0
-568 145 0
-559 569 0
-559 51 0
-563 570 571 0
-570 572 573 0
-572 549 0
-572 550 0
-573 550 0
-573 548 0
-571 549 0
-571 548 0
-398 -574 575 0
-398 -575 574 0
-575 -576 -577 0
-575 576 577 0
-569 578 0
-569 53 0
-576 -579 -580 0
-576 579 580 0
-579 581 0
-581 582 0
-580 583 0
-583 153 0
-577 584 585 0
-578 586 0
-578 9 0
-584 587 588 0
-587 564 0
-587 565 0
-588 565 0
-588 563 0
-585 564 0
-585 563 0
-387 -589 590 0
-387 -590 589 0
-590 -591 -592 0
-590 591 592 0
-591 -593 -594 0
-591 593 594 0
-593 595 0
-595 596 0
-586 597 0
-586 11 0
-594 598 0
-598 163 0
-592 599 600 0
-599 601 602 0
-601 579 0
-601 580 0
-602 580 0
-602 577 0
-516 -447 603 0
-516 -603 447 0
-597 604 0
-597 13 0
-600 579 0
-600 577 0
-375 -605 606 0
-375 -606 605 0
-606 -607 -608 0
-606 607 608 0
-607 -609 -610 0
-607 609 610 0
-609 611 0
-611 612 0
-610 613 0
-604 614 0
-604 15 0
-613 171 0
-608 615 616 0
-615 617 618 0
-617 593 0
-617 594 0
-618 594 0
-618 592 0
-616 593 0
-616 592 0
-363 -619 620 0
-363 -620 619 0
-614 621 0
-614 17 0
-620 -622 -623 0
-620 622 623 0
-622 -624 -625 0
-622 624 625 0
-624 626 0
-626 627 0
-625 628 0
-628 179 0
-621 629 0
-621 19 0
-623 630 631 0
-630 632 633 0
-632 609 0
-632 610 0
-633 610 0
-633 608 0
-631 609 0
-631 608 0
-351 -634 635 0
-351 -635 634 0
-635 -636 -637 0
-635 636 637 0
-636 -638 -639 0
-636 638 639 0
-638 640 0
-629 641 0
-629 21 0
-640 642 0
-639 643 0
-643 186 0
-637 644 645 0
-644 646 647 0
-646 624 0
-646 625 0
-641 648 0
-641 23 0
-647 625 0
-647 623 0
-645 624 0
-645 623 0
-338 -649 650 0
-338 -650 649 0
-650 -651 -652 0
-650 651 652 0
-651 -653 -654 0
-651 653 654 0
-653 655 0
-655 656 0
-648 25 0
-648 237 0
-654 657 0
-657 194 0
-652 658 659 0
-658 660 661 0
-660 638 0
-660 639 0
-661 639 0
-661 637 0
-659 638 0
-659 637 0
-326 -662 663 0
-326 -663 662 0
-25 664 0
-25 248 0
-663 -665 -666 0
-663 665 666 0
-665 -667 -668 0
-665 667 668 0
-667 669 0
-669 670 0
-668 671 0
-671 202 0
-664 672 0
-664 258 0
-666 673 674 0
-673 675 676 0
-675 653 0
-675 654 0
-676 654 0
-676 652 0
-674 653 0
-674 652 0
-313 -677 678 0
-313 -678 677 0
-678 -679 -680 0
-678 679 680 0
-679 -681 -682 0
-679 681 682 0
-672 683 0
-672 269 0
-681 684 0
-684 685 0
-682 686 0
-686 210 0
-680 687 688 0
-687 689 690 0
-683 -280 0
-689 667 0
-689 668 0
-690 668 0
-690 666 0
-688 667 0
-688 666 0
-301 -691 692 0
-301 -692 691 0
-692 -693 -694 0
-692 693 694 0
-693 -695 -696 0
-693 695 696 0
-695 697 0
-697 698 0
-696 699 0
-699 218 0
-694 700 701 0
-700 702 703 0
-702 681 0
-702 682 0
-703 682 0
-703 680 0
-701 681 0
-701 680 0
-269 -704 0
-705 -706 65 0
-705 706 707 0
-706 708 0
-706 34 0
-708 709 0
-708 6 0
-709 710 0
-709 28 0
-710 711 0
-710 38 0
-711 712 0
-711 40 0
-712 713 0
-712 42 0
-713 714 0
-713 44 0
-714 715 0
-714 46 0
-715 716 0
-715 48 0
-716 717 0
-716 51 0
-717 718 0
-717 53 0
-718 719 0
-718 9 0
-719 720 0
-719 11 0
-720 721 0
-720 13 0
-721 722 0
-721 15 0
-722 723 0
-722 17 0
-723 724 0
-723 19 0
-724 725 0
-724 21 0
-725 726 0
-725 23 0
-258 -727 0
-726 317 0
-726 237 0
-317 728 0
-317 248 0
-728 258 0
-728 729 0
-729 683 0
-729 730 0
-730 704 0
-707 -731 66 0
-707 731 732 0
-731 733 0
-731 34 0
-733 734 0
-733 6 0
-734 735 0
-734 28 0
-735 736 0
-735 38 0
-736 737 0
-736 40 0
-737 738 0
-737 42 0
-738 739 0
-738 44 0
-739 740 0
-739 46 0
-740 741 0
-740 48 0
-741 742 0
-741 51 0
-742 743 0
-742 53 0
-743 744 0
-743 9 0
-744 745 0
-744 11 0
-745 746 0
-745 13 0
-248 -747 0
-746 748 0
-746 15 0
-748 749 0
-748 17 0
-749 750 0
-749 19 0
-750 751 0
-750 21 0
-751 752 0
-751 23 0
-752 343 0
-752 237 0
-343 248 0
-343 753 0
-753 258 0
-753 754 0
-754 268 0
-754 730 0
-732 -755 756 0
-732 755 757 0
-755 758 0
-755 34 0
-758 759 0
-758 6 0
-759 760 0
-759 28 0
-760 761 0
-760 38 0
-761 762 0
-761 40 0
-762 763 0
-762 42 0
-763 764 0
-763 44 0
-764 765 0
-764 46 0
-765 766 0
-765 48 0
-766 767 0
-766 51 0
-237 -26 0
-767 768 0
-767 53 0
-768 769 0
-768 9 0
-769 770 0
-769 11 0
-770 771 0
-770 13 0
-771 772 0
-771 15 0
-772 773 0
-772 17 0
-773 774 0
-773 19 0
-774 775 0
-774 21 0
-775 776 0
-775 23 0
-776 237 0
-776 369 0
-369 248 0
-369 777 0
-777 672 0
-777 778 0
-778 727 0
-756 -779 780 0
-756 779 66 0
-779 781 0
-779 782 0
-781 783 0
-781 784 0
-783 785 0
-783 786 0
-785 787 0
-785 788 0
-787 789 0
-787 790 0
-789 791 0
-789 792 0
-23 -793 0
-791 794 0
-791 795 0
-794 796 0
-794 797 0
-796 798 0
-796 799 0
-798 800 0
-798 801 0
-800 802 0
-800 803 0
-802 804 0
-802 805 0
-804 806 0
-804 807 0
-806 808 0
-806 809 0
-808 810 0
-808 811 0
-810 812 0
-810 813 0
-812 814 0
-812 815 0
-814 816 0
-814 817 0
-816 818 0
-816 819 0
-818 820 0
-818 821 0
-820 822 0
-820 823 0
-822 824 0
-822 825 0
-824 826 0
-824 827 0
-826 -427 0
-21 -828 0
-827 428 0
-825 -429 0
-823 -437 829 0
-823 -829 437 0
-829 830 0
-830 831 0
-831 433 0
-821 -445 832 0
-821 -832 445 0
-832 833 0
-833 834 0
-834 441 0
-819 -455 835 0
-819 -835 455 0
-19 -836 0
-835 837 0
-837 838 0
-838 450 0
-817 -462 839 0
-817 -839 462 0
-839 840 0
-840 841 0
-841 459 0
-815 -468 842 0
-815 -842 468 0
-842 843 0
-843 844 0
-844 466 0
-813 -476 845 0
-813 -845 476 0
-845 846 0
-846 847 0
-17 -848 0
-847 472 0
-811 -487 849 0
-811 -849 487 0
-849 850 0
-850 851 0
-851 481 0
-809 -500 852 0
-809 -852 500 0
-852 853 0
-853 854 0
-854 493 0
-807 -514 855 0
-807 -855 514 0
-855 856 0
-856 857 0
-857 506 0
-15 -858 0
-805 -530 859 0
-805 -859 530 0
-859 860 0
-860 861 0
-861 522 0
-803 -545 862 0
-803 -862 545 0
-862 863 0
-863 864 0
-864 537 0
-801 -560 865 0
-801 -865 560 0
-865 866 0
-866 867 0
-867 551 0
-799 -574 868 0
-799 -868 574 0
-452 -869 0
-13 -870 0
-868 871 0
-871 872 0
-872 566 0
-797 -589 873 0
-797 -873 589 0
-873 874 0
-874 875 0
-875 581 0
-795 -605 876 0
-795 -876 605 0
-876 877 0
-877 878 0
-878 595 0
-792 -619 879 0
-792 -879 619 0
-879 880 0
-880 881 0
-11 -882 0
-881 611 0
-790 -634 883 0
-790 -883 634 0
-883 884 0
-884 885 0
-885 626 0
-788 -649 886 0
-788 -886 649 0
-886 887 0
-887 888 0
-888 640 0
-786 -662 889 0
-786 -889 662 0
-889 890 0
-890 891 0
-891 655 0
-9 -892 0
-784 -677 893 0
-784 -893 677 0
-893 894 0
-894 895 0
-895 669 0
-782 -691 896 0
-782 -896 691 0
-896 897 0
-897 898 0
-898 684 0
-780 -899 65 0
-780 899 66 0
-899 900 0
-899 901 0
-900 902 0
-900 903 0
-902 904 0
-902 905 0
-904 906 0
-904 907 0
-906 908 0
-906 909 0
-908 910 0
-908 911 0
-53 -912 0
-910 913 0
-910 914 0
-913 915 0
-913 916 0
-915 917 0
-915 918 0
-917 919 0
-917 920 0
-919 921 0
-919 922 0
-921 923 0
-921 924 0
-923 925 0
-923 926 0
-925 927 0
-925 928 0
-927 929 0
-927 930 0
-929 931 0
-929 932 0
-931 933 0
-931 934 0
-933 935 0
-933 936 0
-935 937 0
-935 938 0
-937 939 0
-937 940 0
-939 941 0
-939 942 0
-941 943 0
-941 944 0
-943 114 0
-943 945 0
-114 -484 0
-945 115 0
-944 -117 946 0
-944 -946 117 0
-51 -947 0
-946 948 0
-948 432 0
-942 -124 949 0
-942 -949 124 0
-949 950 0
-950 440 0
-940 -131 951 0
-940 -951 131 0
-951 952 0
-952 449 0
-938 -138 953 0
-938 -953 138 0
-953 954 0
-954 458 0
-936 -145 955 0
-936 -955 145 0
-955 956 0
-956 465 0
-934 -153 957 0
-934 -957 153 0
-957 958 0
-869 -959 256 0
-869 -256 959 0
-48 -960 0
-958 471 0
-932 -163 961 0
-932 -961 163 0
-961 962 0
-962 479 0
-930 -171 963 0
-930 -963 171 0
-963 964 0
-964 491 0
-928 -179 965 0
-928 -965 179 0
-965 966 0
-966 504 0
-926 -186 967 0
-926 -967 186 0
-967 968 0
-968 520 0
-924 -194 969 0
-924 -969 194 0
-969 970 0
-46 -971 0
-970 534 0
-922 -202 972 0
-922 -972 202 0
-972 973 0
-973 549 0
-920 -210 974 0
-920 -974 210 0
-974 975 0
-975 564 0
-918 -218 976 0
-918 -976 218 0
-976 977 0
-977 579 0
-916 -225 978 0
-916 -978 225 0
-978 979 0
-979 593 0
-914 -233 980 0
-914 -980 233 0
-44 -981 0
-980 982 0
-982 609 0
-911 -241 983 0
-911 -983 241 0
-983 984 0
-984 624 0
-909 -250 985 0
-909 -985 250 0
-985 986 0
-986 638 0
-907 -260 987 0
-907 -987 260 0
-987 988 0
-988 653 0
-905 -267 989 0
-905 -989 267 0
-42 -990 0
-989 991 0
-991 667 0
-903 -276 992 0
-903 -992 276 0
-992 993 0
-993 681 0
-901 -284 994 0
-901 -994 284 0
-994 995 0
-995 695 0
-757 -996 65 0
-757 996 997 0
-996 998 0
-996 34 0
-998 999 0
-998 6 0
-999 1000 0
-999 28 0
-1000 1001 0
-1000 38 0
-1001 40 0
-1001 1002 0
-40 -1003 0
-1002 42 0
-1002 1004 0
-1004 44 0
-1004 1005 0
-1005 46 0
-1005 1006 0
-1006 48 0
-1006 1007 0
-1007 51 0
-1007 1008 0
-1008 53 0
-1008 1009 0
-1009 9 0
-1009 1010 0
-1010 11 0
-1010 1011 0
-1011 13 0
-1011 1012 0
-1012 15 0
-1012 1013 0
-1013 17 0
-1013 1014 0
-1014 19 0
-1014 1015 0
-1015 21 0
-1015 1016 0
-1016 23 0
-1016 1017 0
-1017 237 0
-1017 394 0
-394 248 0
-394 1018 0
-1018 257 0
-1018 778 0
-997 -1019 65 0
-997 1019 1020 0
-1019 1021 0
-1019 34 0
-1021 1022 0
-1021 6 0
-38 -1023 0
-1022 1024 0
-1022 28 0
-1024 38 0
-1024 1025 0
-1025 40 0
-1025 1026 0
-1026 42 0
-1026 1027 0
-1027 44 0
-1027 1028 0
-1028 46 0
-1028 1029 0
-1029 48 0
-1029 1030 0
-1030 51 0
-1030 1031 0
-1031 53 0
-1031 1032 0
-1032 9 0
-1032 1033 0
-1033 11 0
-1033 1034 0
-1034 13 0
-1034 1035 0
-1035 15 0
-1035 1036 0
-1036 17 0
-1036 1037 0
-1037 19 0
-1037 1038 0
-1038 21 0
-1038 1039 0
-1039 23 0
-1039 1040 0
-1040 237 0
-1040 1041 0
-1041 248 0
-1041 1042 0
-1042 729 0
-1042 778 0
-28 -1043 0
-1020 -1044 65 0
-1020 1044 1045 0
-1044 1046 0
-1044 34 0
-1046 1047 0
-1046 6 0
-1047 28 0
-1047 1048 0
-1048 38 0
-1048 1049 0
-1049 40 0
-1049 1050 0
-1050 42 0
-1050 1051 0
-1051 44 0
-1051 1052 0
-1052 46 0
-1052 1053 0
-1053 48 0
-1053 1054 0
-1054 51 0
-1054 1055 0
-1055 53 0
-1055 1056 0
-1056 9 0
-1056 1057 0
-1057 11 0
-1057 1058 0
-1058 13 0
-1058 1059 0
-1059 15 0
-1059 1060 0
-1060 17 0
-1060 1061 0
-1061 19 0
-1061 1062 0
-1062 21 0
-1062 1063 0
-1063 23 0
-1063 1064 0
-6 -1065 0
-1064 237 0
-1064 1066 0
-1066 248 0
-1066 1067 0
-1067 754 0
-1067 778 0
-1045 -1068 65 0
-1045 1068 1069 0
-1068 1070 0
-1068 34 0
-1070 6 0
-1070 1071 0
-1071 28 0
-1071 1072 0
-1072 38 0
-1072 1073 0
-1073 40 0
-1073 1074 0
-1074 42 0
-1074 1075 0
-1075 44 0
-1075 1076 0
-1076 46 0
-1076 1077 0
-1077 48 0
-1077 1078 0
-1078 51 0
-1078 1079 0
-1079 53 0
-1079 1080 0
-1080 9 0
-1080 1081 0
-1081 11 0
-1081 1082 0
-1082 13 0
-1082 1083 0
-1083 15 0
-1083 1084 0
-1084 17 0
-1084 1085 0
-34 -1086 0
-1085 19 0
-1085 1087 0
-1087 21 0
-1087 1088 0
-1088 23 0
-1088 1089 0
-1089 237 0
-1089 1090 0
-1090 664 0
-1090 1091 0
-1091 747 0
-1069 -1092 65 0
-1069 1092 1093 0
-1092 34 0
-1092 1094 0
-1094 6 0
-1094 1095 0
-1095 28 0
-1095 1096 0
-1096 38 0
-1096 1097 0
-1097 40 0
-1097 1098 0
-1098 42 0
-1098 1099 0
-1099 44 0
-1099 1100 0
-1100 46 0
-1100 1101 0
-1101 48 0
-1101 1102 0
-1102 51 0
-1102 1103 0
-1103 53 0
-1103 1104 0
-1104 9 0
-1104 1105 0
-1105 11 0
-1105 1106 0
-486 -1107 290 0
-486 1107 705 0
-1106 13 0
-1106 1108 0
-1108 15 0
-1108 1109 0
-1109 17 0
-1109 1110 0
-1110 19 0
-1110 1111 0
-1111 21 0
-1111 1112 0
-1112 23 0
-1112 1113 0
-1113 237 0
-1113 1114 0
-1114 247 0
-1114 1091 0
-1093 -1115 65 0
-1093 1115 29 0
-1115 34 0
-1115 1116 0
-1107 4 0
-1107 34 0
-1116 6 0
-1116 1117 0
-1117 28 0
-1117 1118 0
-1118 38 0
-1118 1119 0
-1119 40 0
-1119 1120 0
-1120 42 0
-1120 1121 0
-1121 44 0
-1121 1122 0
-1122 46 0
-1122 1123 0
-1123 48 0
-1123 1124 0
-1124 51 0
-1124 1125 0
-1125 7 0
-1125 53 0
4 -5 -6 0
7 -8 -9 0
8 -10 -11 0
10 -12 -13 0
12 -14 -15 0
14 -16 -17 0
16 -18 -19 0
18 -20 -21 0
20 -22 -23 0
22 -25 -24 0
24 -26 0
5 -27 -28 0
29 -30 -31 0
29 -31 -32 0
29 30 -32 0
30 -33 -34 0
33 -35 -6 0
35 -36 -28 0
36 -37 -38 0
37 -39 -40 0
39 -41 -42 0
41 -43 -44 0
43 -45 -46 0
45 -47 -48 0
27 -49 -38 0
47 -50 -51 0
50 -52 -53 0
52 -54 -9 0
54 -55 -11 0
55 -56 -13 0
56 -57 -15 0
57 -58 -17 0
58 -59 -19 0
59 -60 -21 0
60 -61 -23 0
49 -62 -40 0
61 -63 -24 0
31 -64 -65 0
31 -65 -66 0
31 64 -66 0
64 -67 -68 0
67 -69 -70 0
69 -71 -72 0
71 -73 -74 0
73 -75 -76 0
75 -77 -78 0
77 -79 -80 0
79 -81 -82 0
62 -83 -42 0
81 -84 -85 0
84 -86 -87 0
86 -88 -89 0
88 -90 -91 0
90 -92 -93 0
92 -94 -95 0
94 -96 -97 0
96 -98 -99 0
98 -100 -101 0
100 -102 -103 0
83 -104 -44 0
102 -105 -106 0
105 -107 -108 0
107 -109 -110 0
109 -111 -112 0
111 -114 -113 0
113 115 0
112 -117 -116 0
112 117 116 0
116 -118 0
104 -119 -46 0
118 -120 0
120 -121 0
121 -122 0
110 -124 -123 0
110 124 123 0
123 -125 0
125 -126 0
126 -127 0
127 -128 0
119 -129 -48 0
108 -131 -130 0
108 131 130 0
130 -132 0
132 133 0
133 -134 0
134 -135 0
129 -136 -51 0
106 -138 -137 0
106 138 137 0
137 -139 140 0
137 -140 139 0
139 -141 0
141 -142 0
142 -143 0
140 -133 0
103 -145 -144 0
103 145 144 0
136 -146 -53 0
144 -147 148 0
144 -148 147 0
147 -149 0
149 -150 0
150 -151 0
148 -141 -140 0
101 -153 -152 0
101 153 152 0
152 -154 155 0
152 -155 154 0
154 -156 0
2 -157 -66 0
2 -66 -158 0
2 157 -158 0
146 -159 -9 0
156 -160 0
160 -161 0
155 -149 -148 0
99 -163 -162 0
99 163 162 0
162 -164 165 0
162 -165 164 0
164 -166 0
166 -167 0
167 -168 0
159 -169 -11 0
165 -156 -155 0
97 -171 -170 0
97 171 170 0
170 -172 173 0
170 -173 172 0
172 -174 0
174 -175 0
175 -176 0
169 -177 -13 0
173 -166 -165 0
95 -179 -178 0
95 179 178 0
178 -180 181 0
178 -181 180 0
180 -182 0
182 -183 0
183 -184 0
181 -174 -173 0
93 -186 -185 0
93 186 185 0
177 -187 -15 0
185 -188 189 0
185 -189 188 0
188 -190 0
190 -191 0
191 -192 0
189 -182 -181 0
91 -194 -193 0
91 194 193 0
193 -195 196 0
193 -196 195 0
195 -197 0
187 -198 -17 0
197 -199 0
199 -200 0
196 -190 -189 0
89 -202 -201 0
89 202 201 0
201 -203 204 0
201 -204 203 0
203 -205 0
205 -206 0
206 -207 0
198 -208 -19 0
204 -197 -196 0
87 -210 -209 0
87 210 209 0
209 -211 212 0
209 -212 211 0
211 -213 0
213 -214 0
214 -215 0
208 -216 -21 0
212 -205 -204 0
85 -218 -217 0
85 218 217 0
217 -219 220 0
217 -220 219 0
219 -221 0
221 -222 0
222 -223 0
220 -213 -212 0
82 -225 -224 0
82 225 224 0
216 -226 -23 0
224 -227 228 0
224 -228 227 0
227 -229 0
229 -230 0
230 -231 0
228 -221 -220 0
80 -233 -232 0
80 233 232 0
232 -234 235 0
232 -235 234 0
234 -236 0
226 -63 -237 0
236 -238 0
238 -239 0
235 -229 -228 0
78 -241 -240 0
78 241 240 0
240 -242 243 0
240 -243 242 0
242 -244 0
244 -245 0
245 -246 0
63 -247 -248 0
243 -236 -235 0
76 -250 -249 0
76 250 249 0
249 -251 252 0
249 -252 251 0
251 -253 0
253 -254 0
254 -255 0
157 -256 0
247 -257 -258 0
252 -244 -243 0
74 -260 -259 0
74 260 259 0
259 -261 262 0
259 -262 261 0
261 -263 0
263 -264 0
264 -265 0
262 -253 -252 0
72 -267 -266 0
72 267 266 0
257 -268 -269 0
266 -270 271 0
266 -271 270 0
270 -272 0
272 -273 0
273 -274 0
271 -263 -262 0
70 -276 -275 0
70 276 275 0
275 -277 278 0
275 -278 277 0
277 -279 0
268 -280 0
279 -281 0
281 -282 0
278 -272 -271 0
68 -284 -283 0
68 284 283 0
283 -285 286 0
283 -286 285 0
285 -287 0
287 -288 0
288 -289 0
290 -291 -65 0
290 -65 -66 0
290 291 -66 0
286 -279 -278 0
32 -292 -66 0
32 -66 -293 0
32 292 -293 0
292 -294 -34 0
294 -295 -6 0
295 -296 -28 0
296 -297 -38 0
297 -298 -40 0
298 -299 -42 0
291 -300 -301 0
299 -302 -44 0
302 -303 -46 0
303 -304 -48 0
304 -305 -51 0
305 -306 -53 0
306 -307 -9 0
307 -308 -11 0
308 -309 -13 0
309 -310 -15 0
310 -311 -17 0
300 -312 -313 0
311 -314 -19 0
314 -315 -21 0
315 -316 -23 0
316 -317 -24 0
293 -318 -66 0
293 -66 -319 0
293 318 -319 0
318 -320 -34 0
320 -321 -6 0
321 -322 -28 0
322 -323 -38 0
323 -324 -40 0
312 -325 -326 0
324 -327 -42 0
327 -328 -44 0
328 -329 -46 0
329 -330 -48 0
330 -331 -51 0
331 -332 -53 0
332 -333 -9 0
333 -334 -11 0
334 -335 -13 0
335 -336 -15 0
325 -337 -338 0
336 -339 -17 0
339 -340 -19 0
340 -341 -21 0
341 -342 -23 0
342 -343 -24 0
319 -344 -65 0
319 -65 -345 0
319 344 -345 0
344 -346 -34 0
346 -347 -6 0
347 -348 -28 0
348 -349 -38 0
337 -350 -351 0
349 -352 -40 0
352 -353 -42 0
353 -354 -44 0
354 -355 -46 0
355 -356 -48 0
356 -357 -51 0
357 -358 -53 0
358 -359 -9 0
359 -360 -11 0
360 -361 -13 0
350 -362 -363 0
361 -364 -15 0
364 -365 -17 0
365 -366 -19 0
366 -367 -21 0
367 -368 -23 0
368 -369 -24 0
345 -370 -65 0
345 -65 -66 0
345 370 -66 0
370 -371 -34 0
371 -372 -6 0
372 -373 -28 0
362 -374 -375 0
373 -376 -38 0
376 -377 -40 0
377 -378 -42 0
378 -379 -44 0
379 -380 -46 0
380 -381 -48 0
381 -382 -51 0
382 -383 -53 0
383 -384 -9 0
384 -385 -11 0
374 -386 -387 0
385 -388 -13 0
388 -389 -15 0
389 -390 -17 0
390 -391 -19 0
391 -392 -21 0
392 -393 -23 0
393 -394 -24 0
3 -396 -395 0
3 396 395 0
386 -397 -398 0
397 -399 -400 0
399 -401 -402 0
401 -403 -404 0
403 -405 -406 0
405 -407 -408 0
407 -409 -410 0
409 -411 -412 0
66 396 0
411 -413 -414 0
413 -415 -416 0
415 -417 -418 0
417 -419 -420 0
419 -421 -422 0
421 -423 -424 0
423 -425 -426 0
425 427 0
426 428 0
424 -429 -430 0
424 429 430 0
430 -431 0
431 -432 0
432 -433 0
433 -434 0
158 -435 -436 0
158 -436 -3 0
158 435 -3 0
422 -437 -438 0
422 437 438 0
438 -439 0
439 -440 0
440 -441 0
441 -442 0
435 -444 -443 0
420 -445 -446 0
420 445 446 0
443 -447 0
446 -448 0
448 -449 0
449 -450 0
450 -451 0
1 -444 0
1 -452 0
436 -453 -65 0
436 -65 -454 0
436 453 -454 0
418 -455 -456 0
418 455 456 0
456 -457 0
457 -458 0
458 -459 0
459 -460 0
453 461 0
416 -462 -463 0
416 462 463 0
463 -464 0
464 -465 0
465 -466 0
466 -467 0
65 -396 0
414 -468 -469 0
414 468 469 0
469 -470 0
470 -471 0
471 -472 0
472 -473 0
454 -474 -475 0
454 -475 -66 0
454 474 -66 0
412 -476 -477 0
412 476 477 0
474 -461 0
477 -478 0
478 -479 480 0
478 -480 479 0
479 -481 0
481 -482 0
480 -483 0
483 -484 0
475 -65 -486 0
475 -485 -65 0
475 485 -486 0
410 -487 -488 0
410 487 488 0
488 -489 490 0
488 -490 489 0
489 -491 492 0
489 -492 491 0
491 -493 0
485 -494 -34 0
493 -495 0
492 -496 0
496 -115 0
490 -497 0
497 -498 0
498 -479 -480 0
494 -499 -6 0
408 -500 -501 0
408 500 501 0
501 -502 503 0
501 -503 502 0
502 -504 505 0
502 -505 504 0
504 -506 0
506 -507 0
499 -508 -28 0
505 -509 0
509 -117 0
503 -510 0
503 -511 0
510 -512 0
510 -513 0
512 -491 -492 0
513 -492 -490 0
511 -491 -490 0
406 -514 -515 0
406 514 515 0
444 516 0
508 -517 -38 0
515 -518 519 0
515 -519 518 0
518 -520 521 0
518 -521 520 0
520 -522 0
522 -523 0
521 -524 0
524 -124 0
517 -525 -40 0
519 -526 0
519 -527 0
526 -528 0
526 -529 0
528 -504 -505 0
529 -505 -503 0
527 -504 -503 0
404 -530 -531 0
404 530 531 0
531 -532 533 0
531 -533 532 0
532 -534 535 0
532 -535 534 0
525 -536 -42 0
534 -537 0
537 -538 0
535 -539 0
539 -131 0
533 -540 0
533 -541 0
540 -542 0
540 -543 0
536 -544 -44 0
542 -520 -521 0
543 -521 -519 0
541 -520 -519 0
402 -545 -546 0
402 545 546 0
546 -547 548 0
546 -548 547 0
547 -549 550 0
547 -550 549 0
549 -551 0
551 -552 0
544 -553 -46 0
550 -554 0
554 -138 0
548 -555 0
548 -556 0
555 -557 0
555 -558 0
557 -534 -535 0
558 -535 -533 0
556 -534 -533 0
553 -559 -48 0
400 -560 -561 0
400 560 561 0
561 -562 563 0
561 -563 562 0
562 -564 565 0
562 -565 564 0
564 -566 0
566 -567 0
565 -568 0
568 -145 0
559 -569 -51 0
563 -570 0
563 -571 0
570 -572 0
570 -573 0
572 -549 -550 0
573 -550 -548 0
571 -549 -548 0
398 -574 -575 0
398 574 575 0
575 -576 577 0
575 -577 576 0
569 -578 -53 0
576 -579 580 0
576 -580 579 0
579 -581 0
581 -582 0
580 -583 0
583 -153 0
577 -584 0
577 -585 0
578 -586 -9 0
584 -587 0
584 -588 0
587 -564 -565 0
588 -565 -563 0
585 -564 -563 0
387 -589 -590 0
387 589 590 0
590 -591 592 0
590 -592 591 0
591 -593 594 0
591 -594 593 0
593 -595 0
595 -596 0
586 -597 -11 0
594 -598 0
598 -163 0
592 -599 0
592 -600 0
599 -601 0
599 -602 0
601 -579 -580 0
602 -580 -577 0
516 -447 -603 0
516 447 603 0
597 -604 -13 0
600 -579 -577 0
375 -605 -606 0
375 605 606 0
606 -607 608 0
606 -608 607 0
607 -609 610 0
607 -610 609 0
609 -611 0
611 -612 0
610 -613 0
604 -614 -15 0
613 -171 0
608 -615 0
608 -616 0
615 -617 0
615 -618 0
617 -593 -594 0
618 -594 -592 0
616 -593 -592 0
363 -619 -620 0
363 619 620 0
614 -621 -17 0
620 -622 623 0
620 -623 622 0
622 -624 625 0
622 -625 624 0
624 -626 0
626 -627 0
625 -628 0
628 -179 0
621 -629 -19 0
623 -630 0
623 -631 0
630 -632 0
630 -633 0
632 -609 -610 0
633 -610 -608 0
631 -609 -608 0
351 -634 -635 0
351 634 635 0
635 -636 637 0
635 -637 636 0
636 -638 639 0
636 -639 638 0
638 -640 0
629 -641 -21 0
640 -642 0
639 -643 0
643 -186 0
637 -644 0
637 -645 0
644 -646 0
644 -647 0
646 -624 -625 0
641 -648 -23 0
647 -625 -623 0
645 -624 -623 0
338 -649 -650 0
338 649 650 0
650 -651 652 0
650 -652 651 0
651 -653 654 0
651 -654 653 0
653 -655 0
655 -656 0
648 -25 -237 0
654 -657 0
657 -194 0
652 -658 0
652 -659 0
658 -660 0
658 -661 0
660 -638 -639 0
661 -639 -637 0
659 -638 -637 0
326 -662 -663 0
326 662 663 0
25 -664 -248 0
663 -665 666 0
663 -666 665 0
665 -667 668 0
665 -668 667 0
667 -669 0
669 -670 0
668 -671 0
671 -202 0
664 -672 -258 0
666 -673 0
666 -674 0
673 -675 0
673 -676 0
675 -653 -654 0
676 -654 -652 0
674 -653 -652 0
313 -677 -678 0
313 677 678 0
678 -679 680 0
678 -680 679 0
679 -681 682 0
679 -682 681 0
672 -683 -269 0
681 -684 0
684 -685 0
682 -686 0
686 -210 0
680 -687 0
680 -688 0
687 -689 0
687 -690 0
683 280 0
689 -667 -668 0
690 -668 -666 0
688 -667 -666 0
301 -691 -692 0
301 691 692 0
692 -693 694 0
692 -694 693 0
693 -695 696 0
693 -696 695 0
695 -697 0
697 -698 0
696 -699 0
699 -218 0
694 -700 0
694 -701 0
700 -702 0
700 -703 0
702 -681 -682 0
703 -682 -680 0
701 -681 -680 0
269 704 0
705 -65 -707 0
705 -706 -65 0
705 706 -707 0
706 -708 -34 0
708 -709 -6 0
709 -710 -28 0
710 -711 -38 0
711 -712 -40 0
712 -713 -42 0
713 -714 -44 0
714 -715 -46 0
715 -716 -48 0
716 -717 -51 0
717 -718 -53 0
718 -719 -9 0
719 -720 -11 0
720 -721 -13 0
721 -722 -15 0
722 -723 -17 0
723 -724 -19 0
724 -725 -21 0
725 -726 -23 0
258 727 0
726 -317 -237 0
317 -728 -248 0
728 -729 -258 0
729 -683 -730 0
730 -704 0
707 -66 -732 0
707 -731 -66 0
707 731 -732 0
731 -733 -34 0
733 -734 -6 0
734 -735 -28 0
735 -736 -38 0
736 -737 -40 0
737 -738 -42 0
738 -739 -44 0
739 -740 -46 0
740 -741 -48 0
741 -742 -51 0
742 -743 -53 0
743 -744 -9 0
744 -745 -11 0
745 -746 -13 0
248 747 0
746 -748 -15 0
748 -749 -17 0
749 -750 -19 0
750 -751 -21 0
751 -752 -23 0
752 -343 -237 0
343 -753 -248 0
753 -754 -258 0
754 -268 -730 0
732 -755 -756 0
732 -756 -757 0
732 755 -757 0
755 -758 -34 0
758 -759 -6 0
759 -760 -28 0
760 -761 -38 0
761 -762 -40 0
762 -763 -42 0
763 -764 -44 0
764 -765 -46 0
765 -766 -48 0
766 -767 -51 0
237 26 0
767 -768 -53 0
768 -769 -9 0
769 -770 -11 0
770 -771 -13 0
771 -772 -15 0
772 -773 -17 0
773 -774 -19 0
774 -775 -21 0
775 -776 -23 0
776 -369 -237 0
369 -777 -248 0
777 -672 -778 0
778 -727 0
756 -779 -780 0
756 -780 -66 0
756 779 -66 0
779 -781 -782 0
781 -783 -784 0
783 -785 -786 0
785 -787 -788 0
787 -789 -790 0
789 -791 -792 0
23 793 0
791 -794 -795 0
794 -796 -797 0
796 -798 -799 0
798 -800 -801 0
800 -802 -803 0
802 -804 -805 0
804 -806 -807 0
806 -808 -809 0
808 -810 -811 0
810 -812 -813 0
812 -814 -815 0
814 -816 -817 0
816 -818 -819 0
818 -820 -821 0
820 -822 -823 0
822 -824 -825 0
824 -826 -827 0
826 427 0
21 828 0
827 -428 0
825 429 0
823 -437 -829 0
823 437 829 0
829 -830 0
830 -831 0
831 -433 0
821 -445 -832 0
821 445 832 0
832 -833 0
833 -834 0
834 -441 0
819 -455 -835 0
819 455 835 0
19 836 0
835 -837 0
837 -838 0
838 -450 0
817 -462 -839 0
817 462 839 0
839 -840 0
840 -841 0
841 -459 0
815 -468 -842 0
815 468 842 0
842 -843 0
843 -844 0
844 -466 0
813 -476 -845 0
813 476 845 0
845 -846 0
846 -847 0
17 848 0
847 -472 0
811 -487 -849 0
811 487 849 0
849 -850 0
850 -851 0
851 -481 0
809 -500 -852 0
809 500 852 0
852 -853 0
853 -854 0
854 -493 0
807 -514 -855 0
807 514 855 0
855 -856 0
856 -857 0
857 -506 0
15 858 0
805 -530 -859 0
805 530 859 0
859 -860 0
860 -861 0
861 -522 0
803 -545 -862 0
803 545 862 0
862 -863 0
863 -864 0
864 -537 0
801 -560 -865 0
801 560 865 0
865 -866 0
866 -867 0
867 -551 0
799 -574 -868 0
799 574 868 0
452 869 0
13 870 0
868 -871 0
871 -872 0
872 -566 0
797 -589 -873 0
797 589 873 0
873 -874 0
874 -875 0
875 -581 0
795 -605 -876 0
795 605 876 0
876 -877 0
877 -878 0
878 -595 0
792 -619 -879 0
792 619 879 0
879 -880 0
880 -881 0
11 882 0
881 -611 0
790 -634 -883 0
790 634 883 0
883 -884 0
884 -885 0
885 -626 0
788 -649 -886 0
788 649 886 0
886 -887 0
887 -888 0
888 -640 0
786 -662 -889 0
786 662 889 0
889 -890 0
890 -891 0
891 -655 0
9 892 0
784 -677 -893 0
784 677 893 0
893 -894 0
894 -895 0
895 -669 0
782 -691 -896 0
782 691 896 0
896 -897 0
897 -898 0
898 -684 0
780 -65 -66 0
780 -899 -65 0
780 899 -66 0
899 -900 -901 0
900 -902 -903 0
902 -904 -905 0
904 -906 -907 0
906 -908 -909 0
908 -910 -911 0
53 912 0
910 -913 -914 0
913 -915 -916 0
915 -917 -918 0
917 -919 -920 0
919 -921 -922 0
921 -923 -924 0
923 -925 -926 0
925 -927 -928 0
927 -929 -930 0
929 -931 -932 0
931 -933 -934 0
933 -935 -936 0
935 -937 -938 0
937 -939 -940 0
939 -941 -942 0
941 -943 -944 0
943 -114 -945 0
114 484 0
945 -115 0
944 -117 -946 0
944 117 946 0
51 947 0
946 -948 0
948 -432 0
942 -124 -949 0
942 124 949 0
949 -950 0
950 -440 0
940 -131 -951 0
940 131 951 0
951 -952 0
952 -449 0
938 -138 -953 0
938 138 953 0
953 -954 0
954 -458 0
936 -145 -955 0
936 145 955 0
955 -956 0
956 -465 0
934 -153 -957 0
934 153 957 0
957 -958 0
869 -256 -959 0
869 256 959 0
48 960 0
958 -471 0
932 -163 -961 0
932 163 961 0
961 -962 0
962 -479 0
930 -171 -963 0
930 171 963 0
963 -964 0
964 -491 0
928 -179 -965 0
928 179 965 0
965 -966 0
966 -504 0
926 -186 -967 0
926 186 967 0
967 -968 0
968 -520 0
924 -194 -969 0
924 194 969 0
969 -970 0
46 971 0
970 -534 0
922 -202 -972 0
922 202 972 0
972 -973 0
973 -549 0
920 -210 -974 0
920 210 974 0
974 -975 0
975 -564 0
918 -218 -976 0
918 218 976 0
976 -977 0
977 -579 0
916 -225 -978 0
916 225 978 0
978 -979 0
979 -593 0
914 -233 -980 0
914 233 980 0
44 981 0
980 -982 0
982 -609 0
911 -241 -983 0
911 241 983 0
983 -984 0
984 -624 0
909 -250 -985 0
909 250 985 0
985 -986 0
986 -638 0
907 -260 -987 0
907 260 987 0
987 -988 0
988 -653 0
905 -267 -989 0
905 267 989 0
42 990 0
989 -991 0
991 -667 0
903 -276 -992 0
903 276 992 0
992 -993 0
993 -681 0
901 -284 -994 0
901 284 994 0
994 -995 0
995 -695 0
757 -65 -997 0
757 -996 -65 0
757 996 -997 0
996 -998 -34 0
998 -999 -6 0
999 -1000 -28 0
1000 -1001 -38 0
1001 -1002 -40 0
40 1003 0
1002 -1004 -42 0
1004 -1005 -44 0
1005 -1006 -46 0
1006 -1007 -48 0
1007 -1008 -51 0
1008 -1009 -53 0
1009 -1010 -9 0
1010 -1011 -11 0
1011 -1012 -13 0
1012 -1013 -15 0
1013 -1014 -17 0
1014 -1015 -19 0
1015 -1016 -21 0
1016 -1017 -23 0
1017 -394 -237 0
394 -1018 -248 0
1018 -257 -778 0
997 -65 -1020 0
997 -1019 -65 0
997 1019 -1020 0
1019 -1021 -34 0
1021 -1022 -6 0
38 1023 0
1022 -1024 -28 0
1024 -1025 -38 0
1025 -1026 -40 0
1026 -1027 -42 0
1027 -1028 -44 0
1028 -1029 -46 0
1029 -1030 -48 0
1030 -1031 -51 0
1031 -1032 -53 0
1032 -1033 -9 0
1033 -1034 -11 0
1034 -1035 -13 0
1035 -1036 -15 0
1036 -1037 -17 0
1037 -1038 -19 0
1038 -1039 -21 0
1039 -1040 -23 0
1040 -1041 -237 0
1041 -1042 -248 0
1042 -729 -778 0
28 1043 0
1020 -65 -1045 0
1020 -1044 -65 0
1020 1044 -1045 0
1044 -1046 -34 0
1046 -1047 -6 0
1047 -1048 -28 0
1048 -1049 -38 0
1049 -1050 -40 0
1050 -1051 -42 0
1051 -1052 -44 0
1052 -1053 -46 0
1053 -1054 -48 0
1054 -1055 -51 0
1055 -1056 -53 0
1056 -1057 -9 0
1057 -1058 -11 0
1058 -1059 -13 0
1059 -1060 -15 0
1060 -1061 -17 0
1061 -1062 -19 0
1062 -1063 -21 0
1063 -1064 -23 0
6 1065 0
1064 -1066 -237 0
1066 -1067 -248 0
1067 -754 -778 0
1045 -65 -1069 0
1045 -1068 -65 0
1045 1068 -1069 0
1068 -1070 -34 0
1070 -1071 -6 0
1071 -1072 -28 0
1072 -1073 -38 0
1073 -1074 -40 0
1074 -1075 -42 0
1075 -1076 -44 0
1076 -1077 -46 0
1077 -1078 -48 0
1078 -1079 -51 0
1079 -1080 -53 0
1080 -1081 -9 0
1081 -1082 -11 0
1082 -1083 -13 0
1083 -1084 -15 0
1084 -1085 -17 0
34 1086 0
1085 -1087 -19 0
1087 -1088 -21 0
1088 -1089 -23 0
1089 -1090 -237 0
1090 -664 -1091 0
1091 -747 0
1069 -65 -1093 0
1069 -1092 -65 0
1069 1092 -1093 0
1092 -1094 -34 0
1094 -1095 -6 0
1095 -1096 -28 0
1096 -1097 -38 0
1097 -1098 -40 0
1098 -1099 -42 0
1099 -1100 -44 0
1100 -1101 -46 0
1101 -1102 -48 0
1102 -1103 -51 0
1103 -1104 -53 0
1104 -1105 -9 0
1105 -1106 -11 0
486 -290 -705 0
486 -1107 -290 0
486 1107 -705 0
1106 -1108 -13 0
1108 -1109 -15 0
1109 -1110 -17 0
1110 -1111 -19 0
1111 -1112 -21 0
1112 -1113 -23 0
1113 -1114 -237 0
1114 -247 -1091 0
1093 -65 -29 0
1093 -1115 -65 0
1093 1115 -29 0
1115 -1116 -34 0
1107 -4 -34 0
1116 -1117 -6 0
1117 -1118 -28 0
1118 -1119 -38 0
1119 -1120 -40 0
1120 -1121 -42 0
1121 -1122 -44 0
1122 -1123 -46 0
1123 -1124 -48 0
1124 -1125 -51 0
1125 -7 -53 0